
Gurobi 11.0.2 (win64) logging started Sat Nov 23 21:16:44 2024

Set parameter LogFile to value ".\Experiments\Verification_16_eps0.0001\Logs\vit_12_2_6_12_i4_r1_c4.log"
Set parameter TimeLimit to value 43200
Gurobi Optimizer version 11.0.2 build v11.0.2rc0 (win64 - Windows 10.0 (19045.2))

CPU model: Intel(R) Core(TM) i7-10750H CPU @ 2.60GHz, instruction set [SSE2|AVX|AVX2]
Thread count: 6 physical cores, 12 logical processors, using up to 12 threads

Optimize a model with 7383 rows, 7591 columns and 28506 nonzeros
Model fingerprint: 0x4a1ece7d
Model has 2150 quadratic constraints
Model has 420 general constraints
Variable types: 7291 continuous, 300 integer (300 binary)
Coefficient statistics:
  Matrix range     [1e-05, 2e+02]
  QMatrix range    [1e+00, 1e+00]
  QLMatrix range   [1e+00, 1e+00]
  Objective range  [1e+00, 1e+00]
  Bounds range     [1e-310, 1e+03]
  RHS range        [4e-05, 6e+02]
  QRHS range       [1e-06, 1e-06]
Presolve removed 4124 rows and 3920 columns
Presolve time: 0.09s
Presolved: 11867 rows, 3672 columns, 39468 nonzeros
Presolved model has 1883 bilinear constraint(s)
Presolved model has 268 nonlinear constraint(s)

Solving non-convex MINLP

Variable types: 3444 continuous, 228 integer (226 binary)

Root relaxation: objective 7.456083e+01, 5565 iterations, 0.58 seconds (0.82 work units)

    Nodes    |    Current Node    |     Objective Bounds      |     Work
 Expl Unexpl |  Obj  Depth IntInf | Incumbent    BestBd   Gap | It/Node Time

     0     0   74.56083    0 1448          -   74.56083      -     -    1s
     0     0   74.56083    0 1426          -   74.56083      -     -    2s
     0     0   74.56083    0 1407          -   74.56083      -     -    2s
     0     0   74.56083    0 1397          -   74.56083      -     -    4s
     0     0   74.56083    0 1377          -   74.56083      -     -    4s
     0     0   74.56083    0 1377          -   74.56083      -     -    6s
     0     0   74.56083    0 1379          -   74.56083      -     -    7s
     0     0   74.56083    0 1327          -   74.56083      -     -   11s
     0     0   74.56083    0 1336          -   74.56083      -     -   17s
     0     2   74.56083    0 1336          -   74.56083      -     -   32s
     3     6   74.56083    2 1327          -   74.56083      -  2353   35s

Cutting planes:
  Learned: 8
  Implied bound: 5
  MIR: 6
  RLT: 442

Explored 13 nodes (80535 simplex iterations) in 37.70 seconds (41.81 work units)
Thread count was 12 (of 12 available processors)

Solution count 0

Solve interrupted
Best objective -, best bound 7.456083187445e+01, gap -
